9
0, 555, 606, 101, 621, 262, 582, 575, 267
555, 0, 924, 496, 380, 811, 933, 1009, 777
606, 924, 0, 554, 688, 522, 55, 219, 762
101, 496, 554, 0, 522, 317, 538, 560, 368
621, 380, 688, 522, 0, 806, 716, 841, 888
262, 811, 522, 317, 806, 0, 478, 401, 252
582, 933, 55, 538, 716, 478, 0, 164, 722
575, 1009, 219, 560, 841, 401, 164, 0, 653
267, 777, 762, 368, 888, 252, 722, 653, 0
